InboundTrucks  = 10;
OutboundTrucks = 10;
InboundDoors   = 8;
OutboundDoors  = 8;
ReleaseTime    = [30,27,30,27,1,2,2,11,26,5];
UnloadTime     = [26,29,23,17,14,14,18,25,14,30];
LoadTime       = [7,18,6,12,12,6,18,5,9,10];
TransferTime   = [| 13,15,9,0,0,13,6,10,0,7 | 10,13,11,12,5,13,0,14,9,0 | 5,11,11,0,8,5,14,0,15,10 | 0,6,15,0,14,5,7,14,15,0 | 0,0,0,11,15,12,9,8,10,7 | 8,0,10,11,7,0,0,10,10,0 | 0,14,5,11,0,0,13,6,10,0 | 0,15,9,5,9,10,8,13,14,0 | 6,0,0,0,0,10,9,10,12,13 | 0,9,15,0,5,5,11,13,0,5 |];
